data;


param d:= 100;
param r:=5;
param p:=0.700000;
param M:=1000;
param U:=
         1         1        1.528687e+00
         2         1        8.452088e-01
         3         1        1.167070e-01
         4         1        5.257533e-01
         5         1        2.290441e+00
         6         1        6.555699e-01
         7         1        1.123192e+00
         8         1       -1.984439e-01
         9         1        3.907140e-01
        10         1        7.265370e-02
        11         1       -3.353904e-01
        12         1        1.597194e+00
        13         1       -8.633540e-01
        14         1        9.855401e-02
        15         1        8.232503e-01
        16         1       -1.543045e-01
        17         1        3.025924e-01
        18         1       -7.275756e-01
        19         1        4.779271e-01
        20         1        8.419877e-01
        21         1       -5.617551e-01
        22         1        1.427442e+00
        23         1       -1.607471e+00
        24         1        4.849014e-02
        25         1        1.160326e-01
        26         1       -1.354021e+00
        27         1        3.544616e-01
        28         1        2.703972e-01
        29         1        6.598163e-01
        30         1        1.084038e+00
        31         1       -9.053343e-01
        32         1       -2.279962e+00
        33         1        1.941711e+00
        34         1        4.894817e-01
        35         1        4.181838e-01
        36         1       -4.624138e-02
        37         1        5.843248e-01
        38         1        4.246310e-01
        39         1        1.188761e+00
        40         1       -8.612959e-01
        41         1       -1.487836e-01
        42         1        1.642813e+00
        43         1        6.427827e-01
        44         1       -3.791564e-01
        45         1       -1.599727e-01
        46         1       -6.143872e-01
        47         1       -1.409579e+00
        48         1        8.939416e-01
        49         1       -4.403495e-01
        50         1        7.409271e-02
        51         1        1.581573e+00
        52         1       -7.481558e-01
        53         1        2.031020e+00
        54         1        9.381655e-01
        55         1        4.785022e-01
        56         1        2.984295e-01
        57         1       -2.288107e-01
        58         1       -8.156341e-01
        59         1       -7.119440e-01
        60         1       -1.211307e-01
        61         1       -1.446717e+00
        62         1        8.777587e-01
        63         1       -4.190791e-02
        64         1        1.344119e+00
        65         1       -4.020673e-01
        66         1        1.308657e+00
        67         1       -3.180265e-01
        68         1        4.801249e-01
        69         1        4.561711e-01
        70         1        5.690958e-01
        71         1        8.774405e-01
        72         1        1.840120e-03
        73         1        9.976440e-01
        74         1       -6.420466e-01
        75         1       -7.799449e-01
        76         1       -2.285851e-01
        77         1        2.823102e-01
        78         1       -6.042776e-01
        79         1       -4.088357e-01
        80         1        7.325403e-01
        81         1       -1.265830e-01
        82         1        9.166907e-01
        83         1        6.984535e-01
        84         1       -9.560340e-01
        85         1        1.548408e-01
        86         1        2.058940e+00
        87         1       -7.322174e-01
        88         1       -3.819965e-01
        89         1       -6.346458e-01
        90         1       -1.557724e+00
        91         1        9.699088e-01
        92         1        1.721462e+00
        93         1        1.097011e+00
        94         1        1.261094e-01
        95         1        3.012439e-02
        96         1       -3.887550e-01
        97         1       -1.466856e+00
        98         1       -8.839231e-01
        99         1        1.467810e+00
       100         1        6.669373e-01
         1         2       -1.291864e+00
         2         2        4.106987e-01
         3         2        1.041379e+00
         4         2        5.690429e-01
         5         2       -1.301778e+00
         6         2        3.489958e-01
         7         2       -1.839944e+00
         8         2       -1.865698e-01
         9         2        9.276042e-01
        10         2        2.599289e-01
        11         2       -1.455592e+00
        12         2        3.737244e-01
        13         2       -5.172675e-01
        14         2        3.312572e-01
        15         2       -4.169979e-01
        16         2       -1.188913e+00
        17         2        8.005707e-02
        18         2       -4.836832e-01
        19         2       -3.140034e-01
        20         2       -1.083354e+00
        21         2       -1.209265e+00
        22         2       -1.562035e+00
        23         2       -8.871053e-01
        24         2        1.520166e+00
        25         2       -8.811674e-01
        26         2        7.591819e-01
        27         2        3.746811e-01
        28         2       -2.727676e-01
        29         2       -3.508441e-02
        30         2       -5.877269e-01
        31         2        9.052388e-01
        32         2       -1.701842e+00
        33         2        2.736146e+00
        34         2       -2.361987e-01
        35         2       -3.124287e-01
        36         2        5.837782e-01
        37         2       -1.228069e+00
        38         2        5.681549e-01
        39         2       -1.078965e+00
        40         2        5.845340e-01
        41         2        1.755885e-01
        42         2       -4.053684e-01
        43         2        6.383334e-01
        44         2        2.350692e+00
        45         2       -1.095117e+00
        46         2       -7.712724e-01
        47         2       -2.834808e-01
        48         2        4.246400e-02
        49         2       -1.601126e+00
        50         2       -1.169995e+00
        51         2        8.034748e-01
        52         2        1.597356e-02
        53         2        2.113023e-01
        54         2        1.811444e+00
        55         2        3.755288e-01
        56         2        8.301526e-01
        57         2       -3.718338e-01
        58         2       -7.282362e-01
        59         2        3.243581e-01
        60         2        5.088460e-01
        61         2        5.170225e-01
        62         2        1.209316e+00
        63         2        8.280226e-01
        64         2       -4.456510e-01
        65         2        4.618506e-01
        66         2        9.856804e-01
        67         2       -1.766310e+00
        68         2       -1.099256e+00
        69         2       -7.742204e-02
        70         2        2.604877e-01
        71         2        1.232041e+00
        72         2        1.057855e+00
        73         2        1.667267e+00
        74         2       -9.221130e-01
        75         2        6.370839e-01
        76         2        2.861145e-01
        77         2       -2.237232e-02
        78         2        1.814359e+00
        79         2       -4.948009e-01
        80         2       -4.743244e-01
        81         2        4.966119e-01
        82         2        1.047935e+00
        83         2       -1.984935e+00
        84         2        6.405235e-01
        85         2       -5.541528e-01
        86         2       -1.170589e+00
        87         2        6.944167e-01
        88         2       -3.464811e-01
        89         2       -9.739578e-02
        90         2       -7.790859e-01
        91         2       -3.911432e-01
        92         2        1.509901e+00
        93         2        9.534746e-01
        94         2        1.357413e+00
        95         2        1.550124e+00
        96         2        5.487801e-01
        97         2        6.748095e-01
        98         2       -3.976004e-01
        99         2       -1.102489e+00
       100         2        5.208930e-01
         1         3        8.598605e-01
         2         3       -5.307044e-01
         3         3       -3.741192e-01
         4         3       -3.937772e-01
         5         3       -1.328288e+00
         6         3        1.328893e-02
         7         3       -4.205102e-01
         8         3        5.371442e-01
         9         3        1.732127e+00
        10         3       -2.796024e-01
        11         3        8.519600e-01
        12         3       -8.584695e-02
        13         3       -1.383200e+00
        14         3        1.707937e-01
        15         3        6.355178e-01
        16         3        3.670872e-02
        17         3        7.660418e-01
        18         3        1.025196e+00
        19         3       -1.086238e+00
        20         3        1.148728e+00
        21         3       -6.675060e-01
        22         3        6.945823e-01
        23         3        1.516409e+00
        24         3       -6.279070e-01
        25         3        1.754571e+00
        26         3        1.108779e+00
        27         3        1.427065e+00
        28         3        5.214591e-01
        29         3        4.923452e-02
        30         3        2.263432e+00
        31         3       -3.458754e-01
        32         3       -9.267819e-02
        33         3        7.858317e-02
        34         3       -1.054545e+00
        35         3        5.561728e-01
        36         3        2.494720e-01
        37         3        1.371917e+00
        38         3        8.791140e-01
        39         3       -2.480369e-01
        40         3        1.036139e-01
        41         3        7.730586e-01
        42         3        6.138764e-01
        43         3        1.055175e+00
        44         3        4.876398e-01
        45         3       -7.788029e-01
        46         3       -3.906895e-01
        47         3       -4.274681e-01
        48         3        2.222132e+00
        49         3        1.167735e-01
        50         3        1.977457e+00
        51         3        7.086995e-01
        52         3        3.754996e-01
        53         3        1.010638e+00
        54         3       -7.907148e-01
        55         3       -3.597008e-01
        56         3       -1.425966e-01
        57         3       -2.824531e-02
        58         3       -1.810688e-01
        59         3       -2.225876e-02
        60         3        4.370017e-01
        61         3        1.279913e+00
        62         3       -1.088795e+00
        63         3       -5.562405e-01
        64         3       -1.598470e+00
        65         3        2.606325e-01
        66         3        5.701349e-01
        67         3       -3.812516e-01
        68         3       -7.473392e-02
        69         3        1.515107e+00
        70         3       -8.188938e-02
        71         3        1.363872e-01
        72         3        1.175907e-01
        73         3       -9.300180e-01
        74         3        1.019604e+00
        75         3        8.596176e-01
        76         3       -5.771576e-01
        77         3        3.553108e-01
        78         3        1.418248e+00
        79         3       -4.207678e-02
        80         3        1.490538e-01
        81         3        1.578112e+00
        82         3       -2.730499e-01
        83         3        4.423661e-01
        84         3       -1.061978e-01
        85         3        5.107441e-01
        86         3       -1.604199e+00
        87         3        7.271789e-01
        88         3        1.593450e+00
        89         3        7.843451e-01
        90         3       -2.438146e+00
        91         3       -1.496129e+00
        92         3        1.228390e-01
        93         3        1.824328e-01
        94         3       -6.686373e-02
        95         3        1.191523e-02
        96         3       -5.428584e-01
        97         3       -1.165253e+00
        98         3        1.656718e+00
        99         3        5.167447e-03
       100         3        2.646452e-01
         1         4        8.053814e-01
         2         4       -2.138884e+00
         3         4        4.405362e-01
         4         4       -7.175373e-01
         5         4        1.872512e+00
         6         4        1.889890e+00
         7         4        1.135900e+00
         8         4        6.153739e-01
         9         4       -1.315441e-01
        10         4        8.352672e-01
        11         4        1.458533e+00
        12         4        9.466024e-01
        13         4       -1.633530e+00
        14         4        4.412230e-01
        15         4       -5.492109e-01
        16         4        7.855699e-01
        17         4       -7.094706e-01
        18         4        1.684500e-01
        19         4        5.607050e-01
        20         4        4.520094e-01
        21         4        1.394564e-01
        22         4       -8.582313e-01
        23         4       -1.491975e+00
        24         4       -4.826400e-01
        25         4       -3.445560e-01
        26         4       -2.743545e-01
        27         4        7.294045e-01
        28         4       -2.869740e-01
        29         4       -1.959888e+00
        30         4        3.782647e-01
        31         4        2.817822e+00
        32         4        3.405454e-02
        33         4       -4.022184e-01
        34         4       -3.200823e-01
        35         4        1.022296e+00
        36         4        1.172887e+00
        37         4        1.206486e+00
        38         4       -6.712843e-01
        39         4        3.502675e-01
        40         4       -1.340160e+00
        41         4        1.115906e+00
        42         4        6.275353e-02
        43         4       -2.109716e-01
        44         4       -5.077421e-01
        45         4       -5.224493e-02
        46         4        4.675498e-01
        47         4       -1.940115e+00
        48         4       -9.877085e-01
        49         4       -2.681886e+00
        50         4       -7.347351e-01
        51         4        1.820894e-01
        52         4        5.099215e-03
        53         4       -2.973221e-02
        54         4        8.644055e-01
        55         4       -2.290690e-01
        56         4       -6.139933e-01
        57         4        8.481209e-01
        58         4       -1.976027e+00
        59         4       -1.431160e+00
        60         4        1.016447e+00
        61         4        2.397904e-01
        62         4       -1.540548e+00
        63         4        2.016750e+00
        64         4        1.349635e+00
        65         4        1.262106e+00
        66         4       -1.328007e-02
        67         4        7.431700e-01
        68         4       -8.760077e-01
        69         4       -7.342310e-01
        70         4       -3.853637e-01
        71         4        1.088393e+00
        72         4        5.538693e-01
        73         4       -1.130338e-01
        74         4        2.203480e-01
        75         4        1.005522e+00
        76         4        9.079188e-01
        77         4       -1.761935e+00
        78         4       -1.017964e+00
        79         4       -6.634792e-01
        80         4        3.028087e-01
        81         4       -1.003864e-01
        82         4        2.664369e-01
        83         4       -2.635449e-01
        84         4       -1.465123e+00
        85         4       -1.223262e-01
        86         4        8.012329e-01
        87         4       -9.027250e-01
        88         4       -5.791669e-01
        89         4       -1.185611e+00
        90         4       -2.753592e-01
        91         4        2.239835e+00
        92         4        7.755201e-01
        93         4       -3.766644e-01
        94         4       -9.962470e-01
        95         4        7.321996e-01
        96         4       -1.034706e+00
        97         4       -1.281428e+00
        98         4        4.128846e-01
        99         4       -1.261304e+00
       100         4       -3.791030e-01
         1         5       -1.202405e+00
         2         5        1.055021e+00
         3         5       -8.029760e-03
         4         5        4.714502e-01
         5         5       -1.728886e+00
         6         5       -8.493809e-01
         7         5        6.463443e-01
         8         5       -7.553408e-01
         9         5       -8.020358e-01
        10         5        3.494676e-01
        11         5       -1.576237e+00
        12         5        1.129512e+00
        13         5        2.627512e+00
        14         5        1.554189e+00
        15         5        1.209017e+00
        16         5       -3.252166e-01
        17         5        1.301214e+00
        18         5        5.723608e-01
        19         5       -1.154693e+00
        20         5       -2.704202e-01
        21         5        2.091374e-01
        22         5       -3.523553e-01
        23         5        1.853907e-01
        24         5       -4.822036e-01
        25         5        6.256330e-01
        26         5        4.790526e-02
        27         5       -7.950863e-01
        28         5       -1.068122e+00
        29         5        8.491053e-01
        30         5        8.490359e-02
        31         5        1.049784e+00
        32         5       -1.696611e-01
        33         5        6.244901e-01
        34         5        3.428270e-01
        35         5        2.340558e-01
        36         5       -3.520057e-01
        37         5        7.997537e-01
        38         5       -1.179210e+00
        39         5       -5.713033e-01
        40         5        1.835582e+00
        41         5       -6.693736e-01
        42         5       -1.063540e+00
        43         5        2.413245e+00
        44         5       -4.066407e-01
        45         5        8.894105e-01
        46         5        1.161637e-01
        47         5        4.190657e-01
        48         5       -5.706662e-01
        49         5       -3.111068e-01
        50         5       -7.026864e-01
        51         5       -1.431473e+00
        52         5        4.832757e-01
        53         5        9.693146e-01
        54         5        1.365420e+00
        55         5       -1.017397e+00
        56         5       -2.569410e-01
        57         5        9.730044e-01
        58         5       -7.593641e-01
        59         5       -7.501071e-01
        60         5        5.037931e-01
        61         5        1.102733e+00
        62         5        8.013256e-01
        63         5        2.661598e-01
        64         5        5.435197e-01
        65         5       -2.695656e-01
        66         5       -1.117130e+00
        67         5        8.938918e-01
        68         5       -5.038580e-01
        69         5       -2.903255e-01
        70         5       -9.711288e-01
        71         5       -5.157428e-01
        72         5       -1.519549e+00
        73         5        5.053650e-01
        74         5       -2.220123e+00
        75         5       -1.169083e-01
        76         5        1.794506e+00
        77         5       -1.335831e+00
        78         5        5.445680e-01
        79         5       -1.345419e+00
        80         5        1.656775e+00
        81         5       -8.683477e-01
        82         5        7.490734e-01
        83         5        2.509689e-01
        84         5        5.942309e-01
        85         5        1.715562e+00
        86         5       -1.284304e+00
        87         5        2.572457e-01
        88         5        2.179000e+00
        89         5        2.129514e-01
        90         5        1.196383e+00
        91         5       -9.241070e-02
        92         5       -8.955733e-01
        93         5        2.195616e-01
        94         5        1.071833e+00
        95         5        3.437903e-01
        96         5       -1.139088e+00
        97         5        3.184651e-01
        98         5        3.582163e-01
        99         5       -7.344778e-01
       100         5        9.584856e-02
;

param theta:=
    1        1.901365e+00
    2        7.818748e-01
    3        2.029177e-01
    4       -3.213602e-01
    5        5.638203e-01
;
param X_true:=
    1        1.134238e+00
    2        3.102670e+00
    3        8.141168e-01
    4        1.861066e+00
    5        1.491072e+00
    6        4.358119e-01
    7        6.110526e-01
    8       -1.037826e+00
    9        1.409709e+00
   10        2.132521e-01
   11       -2.960342e+00
   12        3.644277e+00
   13       -3.202694e-01
   14        1.215537e+00
   15        2.226380e+00
   16       -1.651336e+00
   17        1.755023e+00
   18       -1.284961e+00
   19       -3.884421e-01
   20        6.892501e-01
   21       -2.075944e+00
   22        1.710852e+00
   23       -2.858301e+00
   24        1.036589e+00
   25        3.511624e-01
   26       -1.640736e+00
   27        5.738040e-01
   28       -1.033401e-01
   29        2.345683e+00
   30        1.987224e+00
   31       -1.397418e+00
   32       -5.791076e+00
   33        6.328528e+00
   34        8.281742e-01
   35        4.671376e-01
   36       -1.562452e-01
   37        4.924059e-01
   38        9.808536e-01
   39        9.316477e-01
   40        3.060322e-01
   41       -7.247507e-01
   42        2.311394e+00
   43        3.363809e+00
   44        1.149879e+00
   45       -8.001865e-01
   46       -1.935247e+00
   47       -2.128759e+00
   48        2.179478e+00
   49       -1.379007e+00
   50       -5.327253e-01
   51        2.913562e+00
   52       -1.062990e+00
   53        4.788072e+00
   54        3.531734e+00
   55        6.304186e-01
   56        1.240008e+00
   57       -4.554643e-01
   58       -1.950078e+00
   59       -1.067583e+00
   60        2.136188e-01
   61       -1.542088e+00
   62        3.340412e+00
   63       -4.318021e-02
   64        1.755589e+00
   65       -9.080575e-01
   66        2.749011e+00
   67       -1.797911e+00
   68        3.567620e-02
   69        1.186517e+00
   70        8.454093e-01
   71        2.018760e+00
   72       -1.802736e-01
   73        3.333022e+00
   74       -3.057408e+00
   75       -1.199459e+00
   76        3.919764e-01
   77        4.044288e-01
   78        1.191608e+00
   79       -1.718115e+00
   80        1.889023e+00
   81        1.050279e-02
   82        2.843632e+00
   83        9.200291e-02
   84       -5.326384e-01
   85        9.713492e-01
   86        1.692422e+00
   87       -2.665680e-01
   88        7.408054e-01
   89       -6.226126e-01
   90       -3.302659e+00
   91        4.628376e-01
   92        3.724443e+00
   93        3.113174e+00
   94        2.212015e+00
   95        1.230234e+00
   96       -7.299708e-01
   97       -1.906505e+00
   98       -1.586072e+00
   99        1.921103e+00
  100        1.904935e+00
;
param X:=
    1        1.134238e+00
    2       -1.820016e+00
    3        5.729924e-01
    4        1.861066e+00
    5       -4.999939e-01
    6        1.227071e+00
    7        9.941436e-01
    8       -3.757344e-01
    9        1.310459e+00
   10       -1.277447e+00
   11       -1.645315e+00
   12        3.644277e+00
   13        9.407997e-01
   14        1.215537e+00
   15        1.135907e-01
   16       -1.651336e+00
   17       -7.723166e-01
   18       -9.871547e-01
   19        9.585533e-02
   20       -1.365192e+00
   21        9.498347e-01
   22        1.710852e+00
   23        5.171490e-01
   24        4.915701e-01
   25       -1.810593e-01
   26        1.110890e-01
   27       -7.961390e-01
   28        3.171690e-01
   29        2.345683e+00
   30        4.800109e-01
   31       -8.146893e-01
   32       -2.429659e-01
   33        2.005012e-01
   34        8.281742e-01
   35       -4.380386e-01
   36       -1.562452e-01
   37        4.924059e-01
   38        1.714237e-01
   39        9.316477e-01
   40        3.871528e-02
   41       -7.247507e-01
   42        9.915389e-02
   43        3.363809e+00
   44        1.171946e+00
   45       -8.001865e-01
   46       -1.935247e+00
   47        1.949371e+00
   48        2.179478e+00
   49       -4.627729e-01
   50        9.252876e-02
   51        2.913562e+00
   52       -1.062990e+00
   53        8.380830e-01
   54        1.198323e+00
   55       -2.001187e+00
   56        1.272435e+00
   57       -1.229213e+00
   58       -1.381460e+00
   59        1.093454e+00
   60        7.347439e-01
   61        2.057068e-01
   62       -1.135530e+00
   63        3.161606e-01
   64        2.188780e-01
   65       -9.080575e-01
   66       -8.680837e-01
   67       -1.797911e+00
   68       -6.547240e-01
   69        1.186517e+00
   70       -4.078665e-01
   71        1.313019e+00
   72       -1.802736e-01
   73       -2.846235e-01
   74       -6.658980e-01
   75       -1.057481e+00
   76       -7.348698e-01
   77        1.096545e-01
   78        1.191608e+00
   79       -1.734106e-01
   80        2.647118e-01
   81        5.131557e-01
   82        1.948991e-01
   83        9.200291e-02
   84       -1.616515e+00
   85        7.238591e-01
   86        1.692422e+00
   87        9.836062e-02
   88        7.408054e-01
   89       -6.226126e-01
   90        6.783982e-01
   91       -2.063490e-01
   92       -2.301329e-01
   93        3.113174e+00
   94       -1.744755e+00
   95        1.230234e+00
   96        1.165052e+00
   97       -1.505105e+00
   98        2.157904e-01
   99        1.921103e+00
  100       -9.377192e-02
;
param outliervec:=
    1    0
    2    1
    3    1
    4    0
    5    1
    6    1
    7    1
    8    1
    9    1
   10    1
   11    1
   12    0
   13    1
   14    0
   15    1
   16    0
   17    1
   18    1
   19    1
   20    1
   21    1
   22    0
   23    1
   24    1
   25    1
   26    1
   27    1
   28    1
   29    0
   30    1
   31    1
   32    1
   33    1
   34    0
   35    1
   36    0
   37    0
   38    1
   39    0
   40    1
   41    0
   42    1
   43    0
   44    1
   45    0
   46    0
   47    1
   48    0
   49    1
   50    1
   51    0
   52    0
   53    1
   54    1
   55    1
   56    1
   57    1
   58    1
   59    1
   60    1
   61    1
   62    1
   63    1
   64    1
   65    0
   66    1
   67    0
   68    1
   69    0
   70    1
   71    1
   72    0
   73    1
   74    1
   75    1
   76    1
   77    1
   78    0
   79    1
   80    1
   81    1
   82    1
   83    0
   84    1
   85    1
   86    0
   87    1
   88    0
   89    0
   90    1
   91    1
   92    1
   93    0
   94    1
   95    0
   96    1
   97    1
   98    1
   99    0
  100    1
;